# Solution for model r10_t9_m4_7
# Finished Task: 9 / 9
# Makespan: 458.0, Total Distance: 459.0, Total Time: 0.0250
# R O S F
0 0 10 0.0 0.0
1 1 13 0.0 0.0
2 2 17 0.0 0.0
3 3 14 0.0 0.0
4 4 18 0.0 0.0
5 5 -1 0.0 0.0
6 6 -1 0.0 0.0
7 7 -1 0.0 0.0
8 8 -1 0.0 0.0
9 9 16 0.0 0.0
10 0 11 193.0 222.0
11 0 15 310.0 333.0
12 1 -1 433.0 458.0
13 1 12 333.0 365.0
14 3 -1 365.0 398.0
15 0 -1 398.0 433.0
16 9 -1 28.0 55.0
17 2 -1 347.0 384.0
18 4 -1 222.0 250.0
